c File: instances/40_0.60_1.col
c
c Description: Random graph of size 40 vertices and P(0.6) of edges between any two vertices.
p col 40 780
e 1 2
e 1 3
e 1 5
e 1 7
e 1 8
e 1 9
e 1 10
e 1 12
e 1 13
e 1 15
e 1 17
e 1 19
e 1 20
e 1 22
e 1 23
e 1 24
e 1 25
e 1 29
e 1 30
e 1 31
e 1 36
e 1 37
e 1 38
e 1 39
e 2 4
e 2 6
e 2 7
e 2 8
e 2 9
e 2 11
e 2 13
e 2 15
e 2 17
e 2 19
e 2 20
e 2 22
e 2 25
e 2 29
e 2 33
e 2 35
e 2 38
e 2 39
e 3 4
e 3 5
e 3 6
e 3 9
e 3 12
e 3 14
e 3 16
e 3 17
e 3 19
e 3 20
e 3 21
e 3 22
e 3 24
e 3 26
e 3 28
e 3 29
e 3 33
e 3 34
e 3 35
e 3 37
e 3 38
e 3 39
e 3 40
e 4 5
e 4 7
e 4 9
e 4 10
e 4 11
e 4 12
e 4 13
e 4 14
e 4 16
e 4 18
e 4 19
e 4 21
e 4 23
e 4 25
e 4 26
e 4 28
e 4 31
e 4 32
e 4 33
e 4 34
e 4 35
e 4 36
e 4 37
e 4 38
e 5 6
e 5 7
e 5 8
e 5 11
e 5 12
e 5 14
e 5 17
e 5 20
e 5 21
e 5 22
e 5 24
e 5 25
e 5 26
e 5 28
e 5 29
e 5 30
e 5 31
e 5 32
e 5 33
e 5 35
e 5 36
e 5 38
e 6 8
e 6 9
e 6 11
e 6 13
e 6 15
e 6 23
e 6 24
e 6 25
e 6 27
e 6 28
e 6 30
e 6 32
e 6 33
e 6 34
e 6 35
e 6 38
e 6 40
e 7 8
e 7 12
e 7 14
e 7 15
e 7 19
e 7 21
e 7 24
e 7 25
e 7 27
e 7 29
e 7 31
e 7 33
e 7 34
e 7 38
e 8 9
e 8 10
e 8 11
e 8 12
e 8 14
e 8 15
e 8 18
e 8 19
e 8 22
e 8 24
e 8 25
e 8 26
e 8 27
e 8 28
e 8 31
e 8 32
e 8 35
e 8 36
e 8 39
e 9 10
e 9 15
e 9 16
e 9 17
e 9 20
e 9 22
e 9 27
e 9 28
e 9 29
e 9 30
e 9 32
e 9 33
e 9 35
e 9 36
e 9 37
e 9 39
e 9 40
e 10 12
e 10 13
e 10 14
e 10 15
e 10 16
e 10 17
e 10 18
e 10 19
e 10 20
e 10 21
e 10 23
e 10 25
e 10 26
e 10 27
e 10 28
e 10 29
e 10 30
e 10 32
e 10 33
e 10 34
e 10 35
e 10 36
e 10 38
e 10 40
e 11 14
e 11 16
e 11 20
e 11 24
e 11 26
e 11 27
e 11 28
e 11 30
e 11 31
e 11 32
e 11 33
e 11 35
e 11 37
e 11 39
e 12 13
e 12 14
e 12 18
e 12 19
e 12 21
e 12 23
e 12 24
e 12 26
e 12 28
e 12 29
e 12 30
e 12 31
e 12 33
e 12 34
e 12 35
e 12 37
e 12 38
e 13 14
e 13 15
e 13 18
e 13 20
e 13 22
e 13 23
e 13 24
e 13 25
e 13 26
e 13 31
e 13 32
e 13 33
e 13 34
e 13 36
e 13 37
e 13 39
e 13 40
e 14 15
e 14 16
e 14 17
e 14 18
e 14 19
e 14 20
e 14 21
e 14 23
e 14 24
e 14 25
e 14 27
e 14 29
e 14 34
e 14 35
e 14 36
e 14 38
e 14 39
e 14 40
e 15 17
e 15 18
e 15 20
e 15 21
e 15 22
e 15 23
e 15 24
e 15 25
e 15 26
e 15 27
e 15 28
e 15 31
e 15 32
e 15 34
e 15 35
e 15 36
e 15 37
e 15 39
e 15 40
e 16 17
e 16 20
e 16 21
e 16 26
e 16 27
e 16 31
e 16 32
e 16 33
e 16 34
e 16 36
e 16 37
e 16 40
e 17 18
e 17 19
e 17 20
e 17 21
e 17 22
e 17 23
e 17 24
e 17 26
e 17 28
e 17 29
e 17 30
e 17 31
e 17 33
e 17 34
e 17 35
e 17 36
e 17 37
e 17 38
e 17 39
e 17 40
e 18 21
e 18 23
e 18 24
e 18 25
e 18 28
e 18 29
e 18 31
e 18 33
e 18 35
e 18 38
e 18 39
e 19 20
e 19 21
e 19 23
e 19 25
e 19 26
e 19 27
e 19 32
e 19 33
e 19 34
e 19 35
e 19 36
e 19 38
e 19 39
e 19 40
e 20 21
e 20 22
e 20 24
e 20 25
e 20 26
e 20 27
e 20 28
e 20 31
e 20 32
e 20 38
e 20 40
e 21 23
e 21 24
e 21 26
e 21 27
e 21 28
e 21 31
e 21 35
e 21 36
e 21 38
e 21 39
e 21 40
e 22 23
e 22 24
e 22 25
e 22 26
e 22 28
e 22 29
e 22 31
e 22 32
e 22 33
e 22 35
e 22 37
e 22 38
e 22 39
e 22 40
e 23 24
e 23 25
e 23 26
e 23 28
e 23 29
e 23 30
e 23 32
e 23 33
e 23 35
e 23 36
e 23 37
e 23 38
e 23 39
e 23 40
e 24 25
e 24 26
e 24 29
e 24 30
e 24 31
e 24 32
e 24 33
e 24 34
e 24 35
e 24 38
e 24 40
e 25 27
e 25 28
e 25 29
e 25 30
e 25 31
e 25 32
e 25 34
e 25 35
e 25 37
e 25 38
e 25 39
e 26 27
e 26 29
e 26 30
e 26 31
e 26 32
e 26 33
e 26 34
e 26 37
e 26 38
e 26 39
e 27 28
e 27 29
e 27 31
e 27 34
e 27 36
e 27 37
e 27 38
e 27 39
e 27 40
e 28 29
e 28 31
e 28 32
e 28 34
e 28 37
e 28 38
e 28 40
e 29 30
e 29 32
e 29 33
e 29 35
e 29 39
e 29 40
e 30 31
e 30 32
e 30 35
e 30 36
e 30 37
e 30 39
e 31 33
e 31 35
e 31 36
e 31 39
e 31 40
e 32 33
e 32 35
e 32 37
e 32 38
e 32 39
e 32 40
e 33 34
e 33 36
e 33 37
e 33 39
e 33 40
e 34 39
e 34 40
e 35 36
e 36 37
e 36 40
e 37 40
e 38 40
e 39 40